c boolean__Z5max_2ii
p cnf 159 287
33 1 0
33 1 -65 0
34 2 0
34 2 -68 0
35 3 0
35 3 -71 0
36 4 0
36 4 -74 0
37 5 0
37 5 -77 0
38 6 0
38 6 -80 0
39 7 0
39 7 -83 0
40 8 0
40 8 -86 0
41 9 0
41 9 -89 0
42 10 0
42 10 -92 0
43 11 0
43 11 -95 0
44 12 0
44 12 -98 0
45 13 0
45 13 -101 0
46 14 0
46 14 -104 0
47 15 0
47 15 -107 0
48 16 0
48 16 -110 0
49 17 0
49 17 -113 0
50 18 0
50 18 -116 0
51 19 0
51 19 -119 0
52 20 0
52 20 -122 0
53 21 0
53 21 -125 0
54 22 0
54 22 -128 0
55 23 0
55 23 -131 0
56 24 0
56 24 -134 0
57 25 0
57 25 -137 0
58 26 0
58 26 -140 0
59 27 0
59 27 -143 0
60 28 0
60 28 -146 0
61 29 0
61 29 -149 0
62 30 0
62 30 -152 0
63 31 0
63 31 -155 0
64 32 0
64 32 -158 0
-1 33 0
161 67 0
161 70 0
161 73 0
161 76 0
161 79 0
161 82 0
161 85 0
161 88 0
161 91 0
161 94 0
161 97 0
161 100 0
161 103 0
161 106 0
161 109 0
161 112 0
161 115 0
161 118 0
161 121 0
161 124 0
161 127 0
161 130 0
161 133 0
161 136 0
161 139 0
161 142 0
161 145 0
161 148 0
161 151 0
161 154 0
161 157 0
161 160 0
163 2 0
163 2 -195 0
164 3 0
164 3 -198 0
165 4 0
165 4 -201 0
166 5 0
166 5 -204 0
167 6 0
167 6 -207 0
168 7 0
168 7 -210 0
169 8 0
169 8 -213 0
170 9 0
170 9 -216 0
171 10 0
171 10 -219 0
172 11 0
172 11 -222 0
173 12 0
173 12 -225 0
174 13 0
174 13 -228 0
175 14 0
175 14 -231 0
176 15 0
176 15 -234 0
177 16 0
177 16 -237 0
178 17 0
178 17 -240 0
179 18 0
179 18 -243 0
180 19 0
180 19 -246 0
181 20 0
181 20 -249 0
182 21 0
182 21 -252 0
183 22 0
183 22 -255 0
184 23 0
184 23 -258 0
185 24 0
185 24 -261 0
186 25 0
186 25 -264 0
187 26 0
187 26 -267 0
188 27 0
188 27 -270 0
189 28 0
189 28 -273 0
190 29 0
190 29 -276 0
191 30 0
191 30 -279 0
192 31 0
192 31 -282 0
193 32 0
193 32 -285 0
